NAME 
ROWS
 N  OBJ
 L  R0      
 E  R1      
 E  R2      
 E  R3      
 E  R4      
 E  R5      
 E  R6      
 E  R7      
 E  R8      
 E  R9      
 E  R10     
 E  R11     
 E  R12     
 E  R13     
 E  R14     
 E  R15     
 E  R16     
 E  R17     
 E  R18     
 E  R19     
 E  R20     
 E  R21     
 E  R22     
 E  R23     
 E  R24     
 E  R25     
 E  R26     
 E  R27     
 E  R28     
 E  R29     
 E  R30     
 E  R31     
 E  R32     
 E  R33     
 E  R34     
 E  R35     
 E  R36     
 E  R37     
 E  R38     
 E  R39     
 E  R40     
COLUMNS
    MARKER    'MARKER'                 'INTORG'
    I0(3)     OBJ       117
    I0(3)     R0        172
    I0(3)     R1        13
    I0(3)     R40       1
    I1(3)     OBJ       -10
    I1(3)     R0        147
    I1(3)     R2        16
    I1(3)     R40       1
    I2(3)     OBJ       17
    I2(3)     R0        150
    I2(3)     R3        7
    I2(3)     R40       1
    I3(3)     OBJ       -78
    I3(3)     R0        180
    I3(3)     R4        4
    I3(3)     R40       1
    I4(3)     OBJ       58
    I4(3)     R0        -82
    I4(3)     R5        18
    I4(3)     R40       1
    I5(3)     OBJ       -99
    I5(3)     R0        75
    I5(3)     R6        5
    I5(3)     R40       1
    I6(3)     OBJ       -176
    I6(3)     R0        -71
    I6(3)     R7        8
    I6(3)     R40       1
    I7(3)     OBJ       16
    I7(3)     R0        35
    I7(3)     R8        13
    I7(3)     R40       1
    I8(3)     OBJ       -177
    I8(3)     R0        -27
    I8(3)     R9        4
    I8(3)     R40       1
    I9(3)     OBJ       154
    I9(3)     R0        -124
    I9(3)     R10       13
    I9(3)     R40       1
    I10(3)    OBJ       143
    I10(3)    R0        35
    I10(3)    R11       15
    I10(3)    R40       1
    I11(3)    OBJ       -129
    I11(3)    R0        -188
    I11(3)    R12       4
    I11(3)    R40       1
    I12(2)    OBJ       89
    I12(2)    R0        40
    I12(2)    R40       1
    I13(3)    OBJ       186
    I13(3)    R0        -104
    I13(3)    R14       17
    I13(3)    R40       1
    I14(3)    OBJ       -181
    I14(3)    R0        -193
    I14(3)    R15       -1
    I14(3)    R40       1
    I15(3)    OBJ       30
    I15(3)    R0        60
    I15(3)    R16       9
    I15(3)    R40       1
    I16(3)    OBJ       -104
    I16(3)    R0        -126
    I16(3)    R17       14
    I16(3)    R40       1
    I17(3)    OBJ       142
    I17(3)    R0        -92
    I17(3)    R18       19
    I17(3)    R40       1
    I18(3)    OBJ       129
    I18(3)    R0        196
    I18(3)    R19       8
    I18(3)    R40       1
    I19(3)    OBJ       151
    I19(3)    R0        -23
    I19(3)    R20       4
    I19(3)    R40       1
    I20(3)    OBJ       62
    I20(3)    R0        -100
    I20(3)    R21       12
    I20(3)    R40       1
    I21(3)    OBJ       144
    I21(3)    R0        51
    I21(3)    R22       5
    I21(3)    R40       1
    I22(3)    OBJ       57
    I22(3)    R0        91
    I22(3)    R23       3
    I22(3)    R40       1
    I23(3)    OBJ       12
    I23(3)    R0        -129
    I23(3)    R24       4
    I23(3)    R40       1
    I24(3)    OBJ       43
    I24(3)    R0        -144
    I24(3)    R25       17
    I24(3)    R40       1
    I25(3)    OBJ       98
    I25(3)    R0        -177
    I25(3)    R26       1
    I25(3)    R40       1
    I26(3)    OBJ       139
    I26(3)    R0        -163
    I26(3)    R27       7
    I26(3)    R40       1
    I27(3)    OBJ       -146
    I27(3)    R0        74
    I27(3)    R28       8
    I27(3)    R40       1
    I28(3)    OBJ       -75
    I28(3)    R0        -115
    I28(3)    R29       1
    I28(3)    R40       1
    I29(3)    OBJ       187
    I29(3)    R0        -112
    I29(3)    R30       13
    I29(3)    R40       1
    I30(3)    OBJ       179
    I30(3)    R0        -45
    I30(3)    R31       1
    I30(3)    R40       1
    I31(3)    OBJ       -15
    I31(3)    R0        24
    I31(3)    R32       16
    I31(3)    R40       1
    I32(3)    OBJ       86
    I32(3)    R0        177
    I32(3)    R33       1
    I32(3)    R40       1
    I33(3)    OBJ       -57
    I33(3)    R0        -14
    I33(3)    R34       19
    I33(3)    R40       1
    I34(3)    OBJ       -67
    I34(3)    R0        -197
    I34(3)    R35       16
    I34(3)    R40       1
    I35(3)    OBJ       48
    I35(3)    R0        -9
    I35(3)    R36       1
    I35(3)    R40       1
    I36(3)    OBJ       -21
    I36(3)    R0        -1
    I36(3)    R37       9
    I36(3)    R40       1
    I37(3)    OBJ       64
    I37(3)    R0        -83
    I37(3)    R38       4
    I37(3)    R40       1
    MARKER    'MARKER'                 'INTEND'
    C38(37)   OBJ       -2
    C38(37)   R0        9
    C38(37)   R1        15
    C38(37)   R2        14
    C38(37)   R3        10
    C38(37)   R4        9
    C38(37)   R5        14
    C38(37)   R6        17
    C38(37)   R8        9
    C38(37)   R9        9
    C38(37)   R10       15
    C38(37)   R11       6
    C38(37)   R12       6
    C38(37)   R13       4
    C38(37)   R14       2
    C38(37)   R15       7
    C38(37)   R17       18
    C38(37)   R18       17
    C38(37)   R19       16
    C38(37)   R20       1
    C38(37)   R21       11
    C38(37)   R22       4
    C38(37)   R23       16
    C38(37)   R24       5
    C38(37)   R25       17
    C38(37)   R27       13
    C38(37)   R28       17
    C38(37)   R29       15
    C38(37)   R30       -1
    C38(37)   R31       15
    C38(37)   R32       12
    C38(37)   R33       11
    C38(37)   R34       -1
    C38(37)   R35       12
    C38(37)   R36       18
    C38(37)   R37       2
    C38(37)   R38       7
    C38(37)   R39       2
    C39(40)   OBJ       -8
    C39(40)   R0        -8
    C39(40)   R1        -1
    C39(40)   R2        18
    C39(40)   R3        11
    C39(40)   R4        10
    C39(40)   R5        12
    C39(40)   R6        18
    C39(40)   R7        15
    C39(40)   R8        11
    C39(40)   R9        14
    C39(40)   R10       3
    C39(40)   R11       19
    C39(40)   R12       19
    C39(40)   R13       3
    C39(40)   R14       13
    C39(40)   R15       15
    C39(40)   R16       11
    C39(40)   R17       4
    C39(40)   R18       17
    C39(40)   R19       9
    C39(40)   R20       18
    C39(40)   R21       2
    C39(40)   R22       2
    C39(40)   R23       16
    C39(40)   R24       4
    C39(40)   R25       15
    C39(40)   R26       5
    C39(40)   R27       11
    C39(40)   R28       14
    C39(40)   R29       8
    C39(40)   R30       13
    C39(40)   R31       13
    C39(40)   R32       11
    C39(40)   R33       19
    C39(40)   R34       2
    C39(40)   R35       5
    C39(40)   R36       -1
    C39(40)   R37       11
    C39(40)   R38       1
    C39(40)   R39       9
    C40(1)    R1        1
    C41(1)    R2        1
    C42(1)    R3        1
    C43(1)    R4        1
    C44(1)    R5        1
    C45(1)    R6        1
    C46(1)    R7        1
    C47(1)    R8        1
    C48(1)    R9        1
    C49(1)    R10       1
    C50(1)    R11       1
    C51(1)    R12       1
    C52(1)    R13       1
    C53(1)    R14       1
    C54(1)    R15       1
    C55(1)    R16       1
    C56(1)    R17       1
    C57(1)    R18       1
    C58(1)    R19       1
    C59(1)    R20       1
    C60(1)    R21       1
    C61(1)    R22       1
    C62(1)    R23       1
    C63(1)    R24       1
    C64(1)    R25       1
    C65(1)    R26       1
    C66(1)    R27       1
    C67(1)    R28       1
    C68(1)    R29       1
    C69(1)    R30       1
    C70(1)    R31       1
    C71(1)    R32       1
    C72(1)    R33       1
    C73(1)    R34       1
    C74(1)    R35       1
    C75(1)    R36       1
    C76(1)    R37       1
    C77(1)    R38       1
    C78(1)    R39       1
    C79(1)    R40       1
RHS
    RHS1      R0        -626.578947368421
    RHS1      R1        72
    RHS1      R2        96
    RHS1      R3        88
    RHS1      R4        97
    RHS1      R5        70
    RHS1      R6        71
    RHS1      R7        85
    RHS1      R8        66
    RHS1      R9        66
    RHS1      R10       77
    RHS1      R11       78
    RHS1      R12       60
    RHS1      R13       57
    RHS1      R14       70
    RHS1      R15       64
    RHS1      R16       93
    RHS1      R17       53
    RHS1      R18       97
    RHS1      R19       98
    RHS1      R20       70
    RHS1      R21       63
    RHS1      R22       80
    RHS1      R23       59
    RHS1      R24       76
    RHS1      R25       50
    RHS1      R26       50
    RHS1      R27       78
    RHS1      R28       65
    RHS1      R29       77
    RHS1      R30       77
    RHS1      R31       80
    RHS1      R32       81
    RHS1      R33       97
    RHS1      R34       60
    RHS1      R35       66
    RHS1      R36       61
    RHS1      R37       98
    RHS1      R38       78
    RHS1      R39       78
    RHS1      R40       12
BOUNDS
 UP BND1      I0(3)     1
 UP BND1      I1(3)     1
 UP BND1      I2(3)     1
 UP BND1      I3(3)     1
 UP BND1      I4(3)     1
 UP BND1      I5(3)     1
 UP BND1      I6(3)     1
 UP BND1      I7(3)     1
 UP BND1      I8(3)     1
 UP BND1      I9(3)     1
 UP BND1      I10(3)    1
 UP BND1      I11(3)    1
 UP BND1      I12(2)    1
 UP BND1      I13(3)    1
 UP BND1      I14(3)    1
 UP BND1      I15(3)    1
 UP BND1      I16(3)    1
 UP BND1      I17(3)    1
 UP BND1      I18(3)    1
 UP BND1      I19(3)    1
 UP BND1      I20(3)    1
 UP BND1      I21(3)    1
 UP BND1      I22(3)    1
 UP BND1      I23(3)    1
 UP BND1      I24(3)    1
 UP BND1      I25(3)    1
 UP BND1      I26(3)    1
 UP BND1      I27(3)    1
 UP BND1      I28(3)    1
 UP BND1      I29(3)    1
 UP BND1      I30(3)    1
 UP BND1      I31(3)    1
 UP BND1      I32(3)    1
 UP BND1      I33(3)    1
 UP BND1      I34(3)    1
 UP BND1      I35(3)    1
 UP BND1      I36(3)    1
 UP BND1      I37(3)    1
ENDATA
